
Gurobi 11.0.1 (win64) logging started Wed May 15 14:42:02 2024

Set parameter LogFile to value "output/solver_log3.txt"
Gurobi Optimizer version 11.0.1 build v11.0.1rc0 (win64 - Windows 11.0 (22631.2))

CPU model: 11th Gen Intel(R) Core(TM) i7-1165G7 @ 2.80GHz, instruction set [SSE2|AVX|AVX2|AVX512]
Thread count: 4 physical cores, 8 logical processors, using up to 8 threads

Optimize a model with 2710 rows, 663 columns and 51393 nonzeros
Model fingerprint: 0xbd658750
Variable types: 248 continuous, 415 integer (415 binary)
Coefficient statistics:
  Matrix range     [4e-01, 1e+05]
  Objective range  [1e+00, 1e+02]
  Bounds range     [1e+00, 1e+00]
  RHS range        [1e-02, 1e+05]

User MIP start produced solution with objective 39731.2 (0.00s)
Loaded user MIP start with objective 39731.2

Presolve removed 302 rows and 235 columns
Presolve time: 0.05s
Presolved: 2408 rows, 428 columns, 47625 nonzeros
Variable types: 236 continuous, 192 integer (188 binary)

Root relaxation: objective 4.809780e+04, 688 iterations, 0.04 seconds (0.08 work units)

    Nodes    |    Current Node    |     Objective Bounds      |     Work
 Expl Unexpl |  Obj  Depth IntInf | Incumbent    BestBd   Gap | It/Node Time

     0     0 48097.8034    0   23 39731.1971 48097.8034  21.1%     -    0s
     0     0 47757.3703    0   38 39731.1971 47757.3703  20.2%     -    0s
     0     0 47157.4917    0   38 39731.1971 47157.4917  18.7%     -    0s
     0     0 47157.4917    0   45 39731.1971 47157.4917  18.7%     -    0s
     0     0 45912.8807    0   49 39731.1971 45912.8807  15.6%     -    0s
     0     0 45562.0653    0   53 39731.1971 45562.0653  14.7%     -    0s
     0     0 45513.6166    0   42 39731.1971 45513.6166  14.6%     -    0s
     0     0 45513.2204    0   38 39731.1971 45513.2204  14.6%     -    0s
     0     0 45513.2204    0   38 39731.1971 45513.2204  14.6%     -    0s
     0     0 45511.0090    0   38 39731.1971 45511.0090  14.5%     -    0s
     0     0 45262.6759    0   39 39731.1971 45262.6759  13.9%     -    1s
     0     0 45216.4988    0   44 39731.1971 45216.4988  13.8%     -    1s
     0     0 45216.4988    0   39 39731.1971 45216.4988  13.8%     -    1s
     0     0 45214.6243    0   40 39731.1971 45214.6243  13.8%     -    1s
     0     0 45214.6243    0   40 39731.1971 45214.6243  13.8%     -    1s
     0     0 45196.1049    0   40 39731.1971 45196.1049  13.8%     -    1s
     0     0 45196.1049    0   40 39731.1971 45196.1049  13.8%     -    1s
     0     2 45196.1049    0   40 39731.1971 45196.1049  13.8%     -    1s
*  133    57              35    39766.124019 42843.4919  7.74%   263    2s
*  160    48              43    39766.224862 42446.6735  6.74%   221    2s
H  185    48                    39768.521461 42440.4339  6.72%   204    3s

Cutting planes:
  Implied bound: 2
  MIR: 24
  RLT: 1
  Relax-and-lift: 1

Explored 300 nodes (51968 simplex iterations) in 3.35 seconds (7.13 work units)
Thread count was 8 (of 8 available processors)

Solution count 5: 39768.5 39768.5 39766.2 ... 39731.2

Optimal solution found (tolerance 1.00e-04)
Best objective 3.976852146077e+04, best bound 3.977000995515e+04, gap 0.0037%
